BAYES
256
2 2 2 2 2 2 2 2 2 2 2 2 2 2 2 2 2 2 2 2 2 2 2 2 2 2 2 2 2 2 2 2 2 2 2 2 2 2 2 2 2 2 2 2 2 2 2 2 2 2 2 2 2 2 2 2 2 2 2 2 2 2 2 2 2 2 2 2 2 2 2 2 2 2 2 2 2 2 2 2 2 2 2 2 2 2 2 2 2 2 2 2 2 2 2 2 2 2 2 2 2 2 2 2 2 2 2 2 2 2 2 2 2 2 2 2 2 2 2 2 2 2 2 2 2 2 2 2 2 2 2 2 2 2 2 2 2 2 2 2 2 2 2 2 2 2 2 2 2 2 2 2 2 2 2 2 2 2 2 2 2 2 2 2 2 2 2 2 2 2 2 2 2 2 2 2 2 2 2 2 2 2 2 2 2 2 2 2 2 2 2 2 2 2 2 2 2 2 2 2 2 2 2 2 2 2 2 2 2 2 2 2 2 2 2 2 2 2 2 2 2 2 2 2 2 2 2 2 2 2 2 2 2 2 2 2 2 2 2 2 2 2 2 2 2 2 2 2 2 2 2 2 2 2 2 2
256
1 0
2 0 1
2 1 2
2 2 3
2 3 4
2 4 5
2 5 6
2 6 7
2 7 8
2 8 9
2 9 10
2 10 11
2 11 12
2 12 13
2 13 14
2 14 15
2 0 16
3 1 16 17
3 2 17 18
3 3 18 19
3 4 19 20
3 5 20 21
3 6 21 22
3 7 22 23
3 8 23 24
3 9 24 25
3 10 25 26
3 11 26 27
3 12 27 28
3 13 28 29
3 14 29 30
3 15 30 31
2 16 32
3 17 32 33
3 18 33 34
3 19 34 35
3 20 35 36
3 21 36 37
3 22 37 38
3 23 38 39
3 24 39 40
3 25 40 41
3 26 41 42
3 27 42 43
3 28 43 44
3 29 44 45
3 30 45 46
3 31 46 47
2 32 48
3 33 48 49
3 34 49 50
3 35 50 51
3 36 51 52
3 37 52 53
3 38 53 54
3 39 54 55
3 40 55 56
3 41 56 57
3 42 57 58
3 43 58 59
3 44 59 60
3 45 60 61
3 46 61 62
3 47 62 63
2 48 64
3 49 64 65
3 50 65 66
3 51 66 67
3 52 67 68
3 53 68 69
3 54 69 70
3 55 70 71
3 56 71 72
3 57 72 73
3 58 73 74
3 59 74 75
3 60 75 76
3 61 76 77
3 62 77 78
3 63 78 79
2 64 80
3 65 80 81
3 66 81 82
3 67 82 83
3 68 83 84
3 69 84 85
3 70 85 86
3 71 86 87
3 72 87 88
3 73 88 89
3 74 89 90
3 75 90 91
3 76 91 92
3 77 92 93
3 78 93 94
3 79 94 95
2 80 96
3 81 96 97
3 82 97 98
3 83 98 99
3 84 99 100
3 85 100 101
3 86 101 102
3 87 102 103
3 88 103 104
3 89 104 105
3 90 105 106
3 91 106 107
3 92 107 108
3 93 108 109
3 94 109 110
3 95 110 111
2 96 112
3 97 112 113
3 98 113 114
3 99 114 115
3 100 115 116
3 101 116 117
3 102 117 118
3 103 118 119
3 104 119 120
3 105 120 121
3 106 121 122
3 107 122 123
3 108 123 124
3 109 124 125
3 110 125 126
3 111 126 127
2 112 128
3 113 128 129
3 114 129 130
3 115 130 131
3 116 131 132
3 117 132 133
3 118 133 134
3 119 134 135
3 120 135 136
3 121 136 137
3 122 137 138
3 123 138 139
3 124 139 140
3 125 140 141
3 126 141 142
3 127 142 143
2 128 144
3 129 144 145
3 130 145 146
3 131 146 147
3 132 147 148
3 133 148 149
3 134 149 150
3 135 150 151
3 136 151 152
3 137 152 153
3 138 153 154
3 139 154 155
3 140 155 156
3 141 156 157
3 142 157 158
3 143 158 159
2 144 160
3 145 160 161
3 146 161 162
3 147 162 163
3 148 163 164
3 149 164 165
3 150 165 166
3 151 166 167
3 152 167 168
3 153 168 169
3 154 169 170
3 155 170 171
3 156 171 172
3 157 172 173
3 158 173 174
3 159 174 175
2 160 176
3 161 176 177
3 162 177 178
3 163 178 179
3 164 179 180
3 165 180 181
3 166 181 182
3 167 182 183
3 168 183 184
3 169 184 185
3 170 185 186
3 171 186 187
3 172 187 188
3 173 188 189
3 174 189 190
3 175 190 191
2 176 192
3 177 192 193
3 178 193 194
3 179 194 195
3 180 195 196
3 181 196 197
3 182 197 198
3 183 198 199
3 184 199 200
3 185 200 201
3 186 201 202
3 187 202 203
3 188 203 204
3 189 204 205
3 190 205 206
3 191 206 207
2 192 208
3 193 208 209
3 194 209 210
3 195 210 211
3 196 211 212
3 197 212 213
3 198 213 214
3 199 214 215
3 200 215 216
3 201 216 217
3 202 217 218
3 203 218 219
3 204 219 220
3 205 220 221
3 206 221 222
3 207 222 223
2 208 224
3 209 224 225
3 210 225 226
3 211 226 227
3 212 227 228
3 213 228 229
3 214 229 230
3 215 230 231
3 216 231 232
3 217 232 233
3 218 233 234
3 219 234 235
3 220 235 236
3 221 236 237
3 222 237 238
3 223 238 239
2 224 240
3 225 240 241
3 226 241 242
3 227 242 243
3 228 243 244
3 229 244 245
3 230 245 246
3 231 246 247
3 232 247 248
3 233 248 249
3 234 249 250
3 235 250 251
3 236 251 252
3 237 252 253
3 238 253 254
3 239 254 255

2
0.277569 0.722431
4
0.0 1.0 1.0 0.0
4
0.0 1.0 1.0 0.0
4
1.0 0.0 0.0 1.0
4
1.0 0.0 0.0 1.0
4
0.645792 0.354208 0.998257 0.00174277
4
1.0 0.0 0.0 1.0
4
0.0 1.0 1.0 0.0
4
0.0529643 0.947036 0.270405 0.729595
4
0.0 1.0 1.0 0.0
4
1.0 0.0 0.0 1.0
4
0.0 1.0 1.0 0.0
4
1.0 0.0 0.0 1.0
4
0.0 1.0 1.0 0.0
4
1.0 0.0 0.0 1.0
4
1.0 0.0 0.0 1.0
4
0.345692 0.654308 0.587577 0.412423
8
1.0 0.0 0.0 1.0 1.0 0.0 1.0 0.0
8
1.0 0.0 0.0 1.0 0.0 1.0 0.0 1.0
8
1.0 0.0 0.0 1.0 0.0 1.0 0.0 1.0
8
0.0 1.0 1.0 0.0 1.0 0.0 0.0 1.0
8
0.0 1.0 1.0 0.0 1.0 0.0 1.0 0.0
8
1.0 0.0 0.0 1.0 1.0 0.0 1.0 0.0
8
0.470086 0.529914 0.694463 0.305537 0.368816 0.631184 0.837521 0.162479
8
1.0 0.0 1.0 0.0 0.0 1.0 1.0 0.0
8
0.224233 0.775767 0.80778 0.19222 0.310632 0.689368 0.208653 0.791347
8
0.0 1.0 1.0 0.0 0.0 1.0 1.0 0.0
8
0.898253 0.101747 0.499397 0.500603 0.205447 0.794553 0.983631 0.0163687
8
1.0 0.0 0.0 1.0 0.0 1.0 1.0 0.0
8
0.99828 0.00172024 0.14903 0.85097 0.317156 0.682844 0.835801 0.164199
8
0.0 1.0 0.0 1.0 1.0 0.0 1.0 0.0
8
1.0 0.0 0.0 1.0 0.0 1.0 1.0 0.0
4
0.279752 0.720248 0.965216 0.0347838
8
1.0 0.0 0.0 1.0 0.0 1.0 1.0 0.0
8
0.0 1.0 1.0 0.0 0.0 1.0 0.0 1.0
8
0.0 1.0 1.0 0.0 1.0 0.0 0.0 1.0
8
1.0 0.0 1.0 0.0 1.0 0.0 0.0 1.0
8
1.0 0.0 1.0 0.0 0.0 1.0 1.0 0.0
8
0.923196 0.0768039 0.706039 0.293961 0.0916927 0.908307 0.888412 0.111588
8
0.727131 0.272869 0.87571 0.12429 0.819698 0.180302 0.260822 0.739178
8
0.0 1.0 1.0 0.0 0.0 1.0 0.0 1.0
8
0.0 1.0 1.0 0.0 1.0 0.0 1.0 0.0
8
0.0 1.0 0.0 1.0 0.0 1.0 1.0 0.0
8
1.0 0.0 0.0 1.0 1.0 0.0 0.0 1.0
8
0.404277 0.595723 0.798633 0.201367 0.904454 0.0955459 0.292689 0.707311
8
1.0 0.0 0.0 1.0 1.0 0.0 1.0 0.0
8
0.0 1.0 1.0 0.0 0.0 1.0 0.0 1.0
8
1.0 0.0 1.0 0.0 1.0 0.0 0.0 1.0
4
1.0 0.0 0.0 1.0
8
1.0 0.0 0.0 1.0 1.0 0.0 0.0 1.0
8
0.0 1.0 0.0 1.0 1.0 0.0 0.0 1.0
8
0.0 1.0 0.0 1.0 1.0 0.0 1.0 0.0
8
0.0 1.0 0.0 1.0 1.0 0.0 1.0 0.0
8
1.0 0.0 1.0 0.0 0.0 1.0 1.0 0.0
8
1.0 0.0 0.0 1.0 1.0 0.0 0.0 1.0
8
1.0 0.0 0.0 1.0 1.0 0.0 0.0 1.0
8
0.718225 0.281775 0.523022 0.476978 0.505726 0.494274 0.194827 0.805173
8
1.0 0.0 0.0 1.0 0.0 1.0 0.0 1.0
8
0.0 1.0 0.0 1.0 1.0 0.0 0.0 1.0
8
1.0 0.0 1.0 0.0 0.0 1.0 1.0 0.0
8
0.0 1.0 0.0 1.0 1.0 0.0 1.0 0.0
8
0.0 1.0 1.0 0.0 0.0 1.0 0.0 1.0
8
1.0 0.0 0.0 1.0 0.0 1.0 1.0 0.0
8
1.0 0.0 0.0 1.0 0.0 1.0 1.0 0.0
4
1.0 0.0 0.0 1.0
8
0.647427 0.352573 0.383827 0.616173 0.100279 0.899721 0.716598 0.283402
8
1.0 0.0 0.0 1.0 0.0 1.0 0.0 1.0
8
1.0 0.0 1.0 0.0 0.0 1.0 1.0 0.0
8
1.0 0.0 0.0 1.0 0.0 1.0 1.0 0.0
8
1.0 0.0 1.0 0.0 0.0 1.0 1.0 0.0
8
1.0 0.0 1.0 0.0 0.0 1.0 1.0 0.0
8
0.187453 0.812547 0.701314 0.298686 0.614082 0.385918 0.3176 0.6824
8
0.0 1.0 1.0 0.0 0.0 1.0 1.0 0.0
8
0.0971354 0.902865 0.596245 0.403755 0.654174 0.345826 0.654224 0.345776
8
1.0 0.0 1.0 0.0 0.0 1.0 1.0 0.0
8
0.473281 0.526719 0.173593 0.826407 0.775746 0.224254 0.569483 0.430517
8
1.0 0.0 1.0 0.0 1.0 0.0 0.0 1.0
8
0.0 1.0 0.0 1.0 1.0 0.0 0.0 1.0
8
1.0 0.0 0.0 1.0 1.0 0.0 1.0 0.0
8
0.394794 0.605206 0.96463 0.0353698 0.43557 0.56443 0.741941 0.258059
4
0.0 1.0 1.0 0.0
8
0.0 1.0 0.0 1.0 1.0 0.0 1.0 0.0
8
0.842568 0.157432 0.350784 0.649216 0.495137 0.504863 0.29183 0.70817
8
0.0 1.0 0.0 1.0 1.0 0.0 1.0 0.0
8
1.0 0.0 1.0 0.0 0.0 1.0 1.0 0.0
8
0.719123 0.280877 0.461773 0.538227 0.283648 0.716352 0.50047 0.49953
8
0.248278 0.751722 0.93604 0.0639596 0.598508 0.401492 0.61389 0.38611
8
0.0 1.0 0.0 1.0 0.0 1.0 1.0 0.0
8
1.0 0.0 0.0 1.0 0.0 1.0 0.0 1.0
8
1.0 0.0 1.0 0.0 0.0 1.0 0.0 1.0
8
0.0 1.0 1.0 0.0 1.0 0.0 0.0 1.0
8
0.710842 0.289158 0.297656 0.702344 0.455118 0.544882 0.99449 0.0055097
8
0.311686 0.688314 0.242768 0.757232 0.734166 0.265834 0.910194 0.0898056
8
0.242234 0.757766 0.816731 0.183269 0.778568 0.221432 0.389189 0.610811
8
0.481779 0.518221 0.348623 0.651377 0.606016 0.393984 0.535773 0.464227
8
0.713772 0.286228 0.760091 0.239909 0.239188 0.760812 0.163655 0.836345
4
0.330342 0.669658 0.707276 0.292724
8
1.0 0.0 1.0 0.0 1.0 0.0 0.0 1.0
8
1.0 0.0 1.0 0.0 1.0 0.0 0.0 1.0
8
0.0 1.0 1.0 0.0 1.0 0.0 0.0 1.0
8
0.0 1.0 1.0 0.0 0.0 1.0 0.0 1.0
8
1.0 0.0 1.0 0.0 1.0 0.0 0.0 1.0
8
1.0 0.0 1.0 0.0 1.0 0.0 0.0 1.0
8
0.0 1.0 1.0 0.0 0.0 1.0 0.0 1.0
8
0.0 1.0 1.0 0.0 1.0 0.0 1.0 0.0
8
0.39437 0.60563 0.871358 0.128642 0.628845 0.371155 0.141549 0.858451
8
1.0 0.0 1.0 0.0 0.0 1.0 0.0 1.0
8
1.0 0.0 1.0 0.0 1.0 0.0 0.0 1.0
8
1.0 0.0 0.0 1.0 0.0 1.0 0.0 1.0
8
0.0 1.0 0.0 1.0 0.0 1.0 1.0 0.0
8
0.0 1.0 1.0 0.0 0.0 1.0 1.0 0.0
8
1.0 0.0 0.0 1.0 1.0 0.0 0.0 1.0
4
0.0 1.0 1.0 0.0
8
0.587524 0.412476 0.22775 0.77225 0.0931583 0.906842 0.447302 0.552698
8
0.0 1.0 0.0 1.0 1.0 0.0 0.0 1.0
8
1.0 0.0 1.0 0.0 0.0 1.0 0.0 1.0
8
0.0 1.0 0.0 1.0 1.0 0.0 0.0 1.0
8
0.0 1.0 1.0 0.0 1.0 0.0 0.0 1.0
8
1.0 0.0 0.0 1.0 0.0 1.0 1.0 0.0
8
0.0 1.0 1.0 0.0 1.0 0.0 0.0 1.0
8
0.32753 0.67247 0.300206 0.699794 0.551913 0.448087 0.572883 0.427117
8
0.0 1.0 1.0 0.0 0.0 1.0 0.0 1.0
8
0.0 1.0 0.0 1.0 0.0 1.0 1.0 0.0
8
0.0 1.0 1.0 0.0 0.0 1.0 0.0 1.0
8
0.352267 0.647733 0.723487 0.276513 0.493984 0.506016 0.410514 0.589486
8
0.0 1.0 0.0 1.0 1.0 0.0 1.0 0.0
8
0.0 1.0 1.0 0.0 0.0 1.0 1.0 0.0
8
0.0947801 0.90522 0.448421 0.551579 0.914954 0.0850455 0.529982 0.470018
4
0.132654 0.867346 0.304855 0.695145
8
0.0 1.0 1.0 0.0 0.0 1.0 1.0 0.0
8
0.0 1.0 1.0 0.0 1.0 0.0 0.0 1.0
8
1.0 0.0 0.0 1.0 1.0 0.0 1.0 0.0
8
0.0 1.0 1.0 0.0 0.0 1.0 0.0 1.0
8
1.0 0.0 1.0 0.0 1.0 0.0 0.0 1.0
8
1.0 0.0 1.0 0.0 0.0 1.0 1.0 0.0
8
0.789911 0.210089 0.268834 0.731166 0.827179 0.172821 0.556859 0.443141
8
0.0 1.0 1.0 0.0 0.0 1.0 0.0 1.0
8
0.849572 0.150428 0.657057 0.342943 0.850179 0.149821 0.459914 0.540086
8
1.0 0.0 0.0 1.0 0.0 1.0 1.0 0.0
8
0.957101 0.0428993 0.294307 0.705693 0.346739 0.653261 0.689951 0.310049
8
0.0 1.0 1.0 0.0 1.0 0.0 1.0 0.0
8
0.0 1.0 0.0 1.0 1.0 0.0 1.0 0.0
8
0.0951282 0.904872 0.139199 0.860801 0.127685 0.872315 0.425835 0.574165
8
0.0 1.0 0.0 1.0 1.0 0.0 1.0 0.0
4
1.0 0.0 0.0 1.0
8
0.722299 0.277701 0.757037 0.242963 0.179098 0.820902 0.48059 0.51941
8
0.0 1.0 1.0 0.0 0.0 1.0 0.0 1.0
8
1.0 0.0 0.0 1.0 0.0 1.0 1.0 0.0
8
1.0 0.0 0.0 1.0 0.0 1.0 0.0 1.0
8
0.400432 0.599568 0.187604 0.812396 0.334077 0.665923 0.284178 0.715822
8
1.0 0.0 0.0 1.0 1.0 0.0 0.0 1.0
8
0.920631 0.079369 0.64804 0.35196 0.00501043 0.99499 0.401221 0.598779
8
0.0 1.0 0.0 1.0 0.0 1.0 1.0 0.0
8
1.0 0.0 1.0 0.0 0.0 1.0 0.0 1.0
8
1.0 0.0 0.0 1.0 1.0 0.0 1.0 0.0
8
1.0 0.0 1.0 0.0 1.0 0.0 0.0 1.0
8
0.0 1.0 1.0 0.0 0.0 1.0 0.0 1.0
8
1.0 0.0 0.0 1.0 0.0 1.0 1.0 0.0
8
0.828231 0.171769 0.749332 0.250668 0.411835 0.588165 0.734253 0.265747
8
0.108775 0.891225 0.803944 0.196056 0.872941 0.127059 0.79832 0.20168
4
0.0 1.0 1.0 0.0
8
0.0 1.0 0.0 1.0 1.0 0.0 0.0 1.0
8
0.0 1.0 1.0 0.0 1.0 0.0 0.0 1.0
8
0.0 1.0 0.0 1.0 0.0 1.0 1.0 0.0
8
0.856731 0.143269 0.740885 0.259115 0.803155 0.196845 0.650999 0.349001
8
0.0 1.0 1.0 0.0 0.0 1.0 1.0 0.0
8
0.0 1.0 1.0 0.0 1.0 0.0 1.0 0.0
8
0.19081 0.80919 0.516357 0.483643 0.806885 0.193115 0.706462 0.293538
8
0.392305 0.607695 0.850962 0.149038 0.539744 0.460256 0.0572221 0.942778
8
0.0 1.0 1.0 0.0 1.0 0.0 0.0 1.0
8
0.0 1.0 0.0 1.0 1.0 0.0 1.0 0.0
8
0.451173 0.548827 0.452236 0.547764 0.881224 0.118776 0.754542 0.245458
8
0.0528341 0.947166 0.861855 0.138145 0.175086 0.824914 0.0227645 0.977236
8
1.0 0.0 0.0 1.0 0.0 1.0 0.0 1.0
8
0.593576 0.406424 0.212225 0.787775 0.770998 0.229002 0.13332 0.86668
8
0.0 1.0 1.0 0.0 1.0 0.0 1.0 0.0
4
1.0 0.0 0.0 1.0
8
0.0 1.0 0.0 1.0 1.0 0.0 0.0 1.0
8
0.0 1.0 1.0 0.0 0.0 1.0 0.0 1.0
8
0.0 1.0 0.0 1.0 0.0 1.0 1.0 0.0
8
0.0 1.0 1.0 0.0 1.0 0.0 1.0 0.0
8
1.0 0.0 1.0 0.0 1.0 0.0 0.0 1.0
8
1.0 0.0 0.0 1.0 1.0 0.0 1.0 0.0
8
1.0 0.0 0.0 1.0 0.0 1.0 1.0 0.0
8
0.946939 0.0530609 0.155111 0.844889 0.400641 0.599359 0.0805363 0.919464
8
0.0 1.0 0.0 1.0 0.0 1.0 1.0 0.0
8
1.0 0.0 1.0 0.0 0.0 1.0 1.0 0.0
8
0.957776 0.0422244 0.803782 0.196218 0.73479 0.26521 0.867054 0.132946
8
0.944501 0.0554991 0.901147 0.0988534 0.160998 0.839002 0.564798 0.435202
8
0.0 1.0 1.0 0.0 0.0 1.0 1.0 0.0
8
0.0 1.0 0.0 1.0 1.0 0.0 1.0 0.0
8
0.0 1.0 1.0 0.0 0.0 1.0 0.0 1.0
4
1.0 0.0 0.0 1.0
8
0.0 1.0 1.0 0.0 0.0 1.0 0.0 1.0
8
0.0 1.0 1.0 0.0 0.0 1.0 0.0 1.0
8
1.0 0.0 0.0 1.0 0.0 1.0 0.0 1.0
8
0.0 1.0 1.0 0.0 1.0 0.0 1.0 0.0
8
0.0 1.0 0.0 1.0 1.0 0.0 0.0 1.0
8
1.0 0.0 1.0 0.0 0.0 1.0 1.0 0.0
8
1.0 0.0 0.0 1.0 1.0 0.0 0.0 1.0
8
1.0 0.0 0.0 1.0 0.0 1.0 1.0 0.0
8
1.0 0.0 0.0 1.0 1.0 0.0 0.0 1.0
8
0.0 1.0 1.0 0.0 1.0 0.0 0.0 1.0
8
1.0 0.0 0.0 1.0 0.0 1.0 1.0 0.0
8
1.0 0.0 0.0 1.0 1.0 0.0 0.0 1.0
8
0.256468 0.743532 0.868595 0.131405 0.192119 0.807881 0.426563 0.573437
8
1.0 0.0 1.0 0.0 0.0 1.0 1.0 0.0
8
0.0 1.0 0.0 1.0 1.0 0.0 0.0 1.0
4
0.0 1.0 1.0 0.0
8
0.0 1.0 0.0 1.0 1.0 0.0 0.0 1.0
8
0.0 1.0 0.0 1.0 1.0 0.0 1.0 0.0
8
1.0 0.0 1.0 0.0 1.0 0.0 0.0 1.0
8
0.176279 0.823721 0.922562 0.0774375 0.704492 0.295508 0.650268 0.349732
8
0.0 1.0 0.0 1.0 1.0 0.0 1.0 0.0
8
1.0 0.0 1.0 0.0 0.0 1.0 1.0 0.0
8
0.479414 0.520586 0.243063 0.756937 0.783449 0.216551 0.848225 0.151775
8
1.0 0.0 1.0 0.0 1.0 0.0 0.0 1.0
8
0.0 1.0 1.0 0.0 0.0 1.0 1.0 0.0
8
0.0 1.0 1.0 0.0 0.0 1.0 1.0 0.0
8
0.0 1.0 1.0 0.0 1.0 0.0 1.0 0.0
8
1.0 0.0 0.0 1.0 0.0 1.0 0.0 1.0
8
1.0 0.0 0.0 1.0 0.0 1.0 1.0 0.0
8
1.0 0.0 0.0 1.0 0.0 1.0 0.0 1.0
8
1.0 0.0 0.0 1.0 0.0 1.0 1.0 0.0
4
0.0 1.0 1.0 0.0
8
0.936279 0.0637208 0.836322 0.163678 0.653082 0.346918 0.941001 0.058999
8
1.0 0.0 1.0 0.0 0.0 1.0 0.0 1.0
8
1.0 0.0 0.0 1.0 0.0 1.0 0.0 1.0
8
0.0 1.0 1.0 0.0 0.0 1.0 1.0 0.0
8
1.0 0.0 0.0 1.0 1.0 0.0 0.0 1.0
8
0.446411 0.553589 0.205847 0.794153 0.582594 0.417406 0.0282365 0.971764
8
1.0 0.0 0.0 1.0 1.0 0.0 1.0 0.0
8
0.981729 0.0182715 0.852432 0.147568 0.0612522 0.938748 0.632567 0.367433
8
0.153199 0.846801 0.883588 0.116412 0.15064 0.84936 0.925792 0.074208
8
0.0 1.0 0.0 1.0 1.0 0.0 0.0 1.0
8
0.49653 0.50347 0.970234 0.0297657 0.479477 0.520523 0.539291 0.460709
8
1.0 0.0 0.0 1.0 0.0 1.0 1.0 0.0
8
0.0 1.0 0.0 1.0 1.0 0.0 1.0 0.0
8
1.0 0.0 1.0 0.0 1.0 0.0 0.0 1.0
8
0.0 1.0 1.0 0.0 1.0 0.0 0.0 1.0
4
1.0 0.0 0.0 1.0
8
0.88266 0.11734 0.871908 0.128092 0.391879 0.608121 0.682046 0.317954
8
0.0 1.0 0.0 1.0 0.0 1.0 1.0 0.0
8
0.617547 0.382453 0.686244 0.313756 0.907369 0.092631 0.586557 0.413443
8
0.0 1.0 0.0 1.0 1.0 0.0 1.0 0.0
8
0.0 1.0 1.0 0.0 1.0 0.0 0.0 1.0
8
0.855277 0.144723 0.356918 0.643082 0.837653 0.162347 0.298227 0.701773
8
0.0 1.0 1.0 0.0 0.0 1.0 0.0 1.0
8
1.0 0.0 0.0 1.0 1.0 0.0 1.0 0.0
8
0.0 1.0 1.0 0.0 1.0 0.0 1.0 0.0
8
1.0 0.0 0.0 1.0 1.0 0.0 0.0 1.0
8
0.291555 0.708445 0.246593 0.753407 0.617735 0.382265 0.105246 0.894754
8
0.0 1.0 1.0 0.0 0.0 1.0 0.0 1.0
8
0.0 1.0 1.0 0.0 1.0 0.0 0.0 1.0
8
0.0 1.0 1.0 0.0 0.0 1.0 1.0 0.0
8
1.0 0.0 1.0 0.0 1.0 0.0 0.0 1.0